TYPE : Vertex Cover
DIMENSION: 38
EDGE_DATA_SECTION:
0 2
0 5
0 22
0 25
1 2
1 3
1 13
1 17
1 22
1 23
1 24
1 28
1 35
1 36
2 4
2 7
2 9
2 16
2 22
2 26
2 34
3 4
3 9
3 10
3 24
3 26
3 35
3 37
4 8
4 18
4 20
4 25
4 26
4 35
5 9
5 11
5 13
5 19
5 24
5 34
6 8
6 9
6 17
6 22
6 23
6 30
6 33
6 34
7 8
7 9
7 12
7 17
7 18
7 26
7 37
8 9
8 11
8 17
8 19
8 36
8 37
9 11
9 12
9 15
9 18
9 19
9 23
9 26
9 33
9 36
10 20
10 23
10 28
10 29
10 31
10 35
10 36
11 16
11 19
11 23
11 35
12 17
12 19
12 25
12 31
12 33
12 37
13 17
14 28
14 33
14 34
14 36
14 37
15 17
15 21
15 23
15 34
15 35
15 37
16 17
16 20
16 22
16 24
16 25
16 26
16 27
16 30
16 31
17 20
17 26
17 29
17 32
18 20
18 22
18 27
18 29
18 37
19 22
19 29
19 30
19 37
20 22
20 23
20 29
20 33
20 35
21 30
21 31
21 33
21 35
22 23
22 29
22 36
23 25
23 28
24 27
24 28
24 29
24 30
24 32
25 29
25 31
25 35
26 29
26 33
27 29
27 32
27 34
28 36
28 37
29 34
31 35
32 36
32 37
33 37
34 35
35 36
35 37
36 37
-1
VERTEX_DEGREE:
4.0 10.0 9.0 8.0 8.0 7.0 8.0 8.0 9.0 15.0 8.0 7.0 8.0 3.0 5.0 7.0 11.0 12.0 8.0 9.0 10.0 5.0 11.0 10.0 9.0 8.0 9.0 6.0 7.0 11.0 5.0 6.0 5.0 8.0 8.0 13.0 10.0 13.0
VERTEX_COVER:
1 2 4 5 6 8 9 10 12 14 16 17 18 19 20 21 22 23 24 25 26 27 34 35 36 37
EOF
